mixintcount/benchmarks/random_v2l/7_7_2238.in
28 9
#	x1	x2	x3	x4	x5	x6	x7;		0 = Real; 1 = Integer
	1	1	1	1	1	1	1
1	-5	-5	-8	-8	0	-7	9	-803
1	6	-9	-5	-7	8	-9	7	-17
1	5	8	7	-4	5	3	8	1979
1	8	3	-9	9	2	3	8	573
1	6	10	7	-6	-10	5	-4	-1351
1	4	1	7	1	0	2	1	275
1	-3	-3	-1	-9	10	-4	1	-242
1	9	1	3	-2	-7	0	-7	1640
1	-2	8	-10	-4	1	-4	-10	1102
1	5	5	4	-7	-6	-6	-5	1345
1	-1	4	3	-2	10	-6	-8	-1575
1	5	4	-6	6	-9	-3	2	1488
1	-5	1	4	6	5	2	8	-240
1	-4	-1	3	1	1	8	-10	1287
1	1	0	0	0	0	0	0	2238
1	-1	0	0	0	0	0	0	2238
1	0	1	0	0	0	0	0	2238
1	0	-1	0	0	0	0	0	2238
1	0	0	1	0	0	0	0	2238
1	0	0	-1	0	0	0	0	2238
1	0	0	0	1	0	0	0	2238
1	0	0	0	-1	0	0	0	2238
1	0	0	0	0	1	0	0	2238
1	0	0	0	0	-1	0	0	2238
1	0	0	0	0	0	1	0	2238
1	0	0	0	0	0	-1	0	2238
1	0	0	0	0	0	0	1	2238
1	0	0	0	0	0	0	-1	2238
